p cnf 60 200
1 2 3 0
4 5 6 0
7 8 9 0
10 11 12 0
13 14 15 0
16 17 18 0
19 20 21 0
22 23 24 0
25 26 27 0
28 29 30 0
31 32 33 0
34 35 36 0
37 38 39 0
40 41 42 0
43 44 45 0
46 47 48 0
49 50 51 0
52 53 54 0
55 56 57 0
58 59 60 0
-1 -2 0
-1 -3 0
-2 -3 0
-4 -5 0
-4 -6 0
-5 -6 0
-7 -8 0
-7 -9 0
-8 -9 0
-10 -11 0
-10 -12 0
-11 -12 0
-13 -14 0
-13 -15 0
-14 -15 0
-16 -17 0
-16 -18 0
-17 -18 0
-19 -20 0
-19 -21 0
-20 -21 0
-22 -23 0
-22 -24 0
-23 -24 0
-25 -26 0
-25 -27 0
-26 -27 0
-28 -29 0
-28 -30 0
-29 -30 0
-31 -32 0
-31 -33 0
-32 -33 0
-34 -35 0
-34 -36 0
-35 -36 0
-37 -38 0
-37 -39 0
-38 -39 0
-40 -41 0
-40 -42 0
-41 -42 0
-43 -44 0
-43 -45 0
-44 -45 0
-46 -47 0
-46 -48 0
-47 -48 0
-49 -50 0
-49 -51 0
-50 -51 0
-52 -53 0
-52 -54 0
-53 -54 0
-55 -56 0
-55 -57 0
-56 -57 0
-58 -59 0
-58 -60 0
-59 -60 0
-1 -22 0
-1 -52 0
-4 -10 0
-4 -16 0
-7 -28 0
-7 -37 0
-10 -4 0
-10 -58 0
-13 -28 0
-13 -43 0
-16 -4 0
-16 -31 0
-19 -46 0
-19 -55 0
-22 -1 0
-22 -40 0
-25 -49 0
-25 -55 0
-28 -7 0
-28 -13 0
-31 -16 0
-31 -37 0
-34 -43 0
-34 -58 0
-37 -7 0
-37 -31 0
-40 -22 0
-40 -49 0
-43 -13 0
-43 -34 0
-46 -19 0
-46 -52 0
-49 -25 0
-49 -40 0
-52 -1 0
-52 -46 0
-55 -19 0
-55 -25 0
-58 -10 0
-58 -34 0
-2 -23 0
-2 -53 0
-5 -11 0
-5 -17 0
-8 -29 0
-8 -38 0
-11 -5 0
-11 -59 0
-14 -29 0
-14 -44 0
-17 -5 0
-17 -32 0
-20 -47 0
-20 -56 0
-23 -2 0
-23 -41 0
-26 -50 0
-26 -56 0
-29 -8 0
-29 -14 0
-32 -17 0
-32 -38 0
-35 -44 0
-35 -59 0
-38 -8 0
-38 -32 0
-41 -23 0
-41 -50 0
-44 -14 0
-44 -35 0
-47 -20 0
-47 -53 0
-50 -26 0
-50 -41 0
-53 -2 0
-53 -47 0
-56 -20 0
-56 -26 0
-59 -11 0
-59 -35 0
-3 -24 0
-3 -54 0
-6 -12 0
-6 -18 0
-9 -30 0
-9 -39 0
-12 -6 0
-12 -60 0
-15 -30 0
-15 -45 0
-18 -6 0
-18 -33 0
-21 -48 0
-21 -57 0
-24 -3 0
-24 -42 0
-27 -51 0
-27 -57 0
-30 -9 0
-30 -15 0
-33 -18 0
-33 -39 0
-36 -45 0
-36 -60 0
-39 -9 0
-39 -33 0
-42 -24 0
-42 -51 0
-45 -15 0
-45 -36 0
-48 -21 0
-48 -54 0
-51 -27 0
-51 -42 0
-54 -3 0
-54 -48 0
-57 -21 0
-57 -27 0
-60 -12 0
-60 -36 0
